n_res = 4;
rcap = [15, 18, 218, 185];
rtype = [1, 1, 2, 2];
n_tasks = 30;
modes = [ {1, 2, 3}, {4, 5, 6}, {7, 8, 9}, {10, 11, 12}, {13, 14, 15}, {16, 17, 18}, {19, 20, 21}, {22, 23, 24}, {25, 26, 27}, {28, 29, 30}, {31, 32, 33}, {34, 35, 36}, {37, 38, 39}, {40, 41, 42}, {43, 44, 45}, {46, 47, 48}, {49, 50, 51}, {52, 53, 54}, {55, 56, 57}, {58, 59, 60}, {61, 62, 63}, {64, 65, 66}, {67, 68, 69}, {70, 71, 72}, {73, 74, 75}, {76, 77, 78}, {79, 80, 81}, {82, 83, 84}, {85, 86, 87}, {88, 89, 90} ];
succ = [ {5}, {4, 8, 15}, {6, 7, 24}, {9, 12, 13}, {7, 9, 13}, {8, 26}, {11, 15}, {27}, {10}, {14, 16, 22}, {25}, {17, 19, 22}, {24, 30}, {17, 18, 19}, {16, 27}, {17, 18, 21}, {25, 29}, {23, 25}, {20}, {23, 27}, {26}, {23, 29}, {26}, {29}, {28}, {28, 30}, {28}, {}, {}, {} ];
n_opt = 90;
dur = [8, 8, 9, 7, 10, 10, 2, 5, 10, 4, 6, 10, 2, 7, 8, 4, 4, 6, 2, 5, 6, 1, 1, 2, 6, 7, 7, 2, 3, 8, 3, 4, 6, 6, 8, 10, 1, 1, 5, 2, 6, 9, 7, 8, 10, 6, 7, 9, 1, 5, 6, 1, 2, 5, 1, 1, 3, 3, 4, 6, 1, 5, 7, 6, 7, 10, 1, 5, 7, 7, 9, 10, 2, 5, 9, 3, 7, 9, 3, 6, 7, 4, 6, 8, 3, 4, 8, 7, 9, 10];
rreq = [|  9,  6,  4,  5,  4,  3,  6,  5,  3,  4,  4,  3,  8,  5,  2,  7,  7,  7,  6,  4,  4,  7,  8,  7,  6,  4,  5,  7,  4,  2,  9,  8,  8,  6,  6,  5,  9, 10,  9,  5,  3,  2,  6,  5,  4,  5,  5,  4,  9,  8,  7,  7,  4,  1,  2,  2,  1, 10,  9,  8,  6,  5,  4,  3,  3,  1,  5,  5,  5,  4,  4,  4,  3,  3,  2,  7,  6,  4,  4,  3,  1,  5,  4,  4,  4,  3,  1,  6,  6,  6
        |  3,  2,  1,  7,  6,  7,  4,  2,  1,  9,  4,  3,  9,  8,  7,  6,  6,  5,  6,  3,  1,  5,  5,  2,  8,  4,  6, 10,  7,  7,  5,  4,  2,  9,  5,  2,  3,  3,  3,  8,  8,  7, 10,  8,  3,  9,  8,  8,  9,  7,  4,  9,  9,  8,  6,  6,  5,  6,  4,  1,  7,  7,  7,  5,  4,  4,  6,  6,  6,  9,  9,  6,  8,  4,  2,  7,  7,  7,  4,  3,  3,  8,  7,  5, 10, 10, 10,  4,  4,  3
        |  3,  4,  2,  5,  4,  4,  9,  4,  1,  5,  5,  4,  3,  2,  2,  8,  9,  5,  9,  6,  5, 10,  6,  2,  8,  6,  5,  9,  7,  6,  3,  3,  2,  3,  2,  2,  3,  2,  2,  9,  8,  8, 10, 10, 10,  8,  7,  6,  7,  4,  2,  9,  9,  8,  7,  9,  4,  9,  8,  6,  6,  6,  6, 10,  7,  4,  5,  4,  3,  9,  6,  5,  9,  8,  8,  6,  6,  6,  8,  6,  4,  9,  9,  9,  7,  5,  4,  8,  7,  7
        |  7,  7,  4,  6,  1,  1,  3,  3,  2,  4,  4,  3,  7,  7,  6,  8,  5,  2,  7,  6,  4,  5,  5,  4,  8,  8,  8,  3,  2,  1,  6,  5,  5,  3,  3,  3,  9,  9,  9,  8,  5,  4,  3,  3,  3,  4,  4,  4,  7,  3,  1,  8,  8,  8,  5,  4,  3,  7,  6,  3,  7,  6,  6,  3,  2,  1,  5,  4,  3,  7,  6,  1,  9,  8,  8,  6,  4,  2,  4,  4,  2,  7,  6,  6,  9,  9,  8, 10,  5,  4 |];
